50
95 752 624 624 703 855 36 189 472 701 505 506 308 244 874 983 500 468 129 602 212 626 279 468 866 312 535 319 486 868 493 965 408 455 645 502 672 291 14 423 65 249 598 691 910 679 556 345 477 289 
324 621 9 983 823 1000 264 200 55 194 25 692 366 816 761 350 167 348 31 649 190 149 889 438 947 981 664 250 148 247 737 512 298 18 352 393 70 250 296 416 494 566 850 295 95 304 217 576 477 322 
12310
